122     4       
19      22      16      24      
0       0       0       0       0       3       2       3       4       
6       0       0       0       2       3       11      15      16      
2       1       0       0       0       3       6       17      19      
3       6       0       0       0       3       5       7       66      
6       0       1       0       0       3       33      90      111     
4       3       0       0       0       3       14      39      70      
4       0       0       0       9       3       8       9       29      
8       9       0       0       0       2       59      113     
6       0       0       0       10      3       10      12      25      
9       0       8       0       0       3       41      62      102     
3       0       4       0       0       3       18      40      72      
3       0       4       0       0       3       13      22      26      
9       0       0       0       9       3       31      38      47      
10      0       4       0       0       3       20      61      67      
7       4       0       0       0       3       28      69      75      
1       0       0       5       0       3       21      43      44      
5       6       0       0       0       2       43      62      
4       0       0       4       0       1       23      
5       0       10      0       0       3       27      62      97      
4       3       0       0       0       3       65      68      107     
3       9       0       0       0       3       24      30      35      
5       0       0       0       7       1       121     
4       7       0       0       0       3       32      42      58      
10      0       0       0       3       1       69      
5       0       0       6       0       3       34      59      106     
1       2       0       0       0       3       32      46      54      
5       0       0       10      0       2       60      94      
2       0       0       0       1       2       53      115     
2       0       0       10      0       3       36      52      75      
8       0       1       0       0       3       36      37      49      
9       0       0       0       3       3       53      73      80      
10      0       2       0       0       2       48      88      
5       0       0       0       1       3       77      93      94      
6       0       0       8       0       3       46      54      63      
5       7       0       0       0       3       48      50      103     
6       0       0       3       0       3       42      45      68      
3       0       4       0       0       3       67      74      75      
5       0       6       0       0       3       46      51      56      
9       4       0       0       0       2       44      95      
5       0       0       3       0       2       57      60      
7       0       0       0       8       3       45      74      104     
7       8       0       0       0       1       90      
6       0       1       0       0       3       49      64      86      
9       0       0       0       1       3       85      89      92      
9       10      0       0       0       1       83      
2       0       0       0       4       3       48      76      88      
4       0       0       0       8       3       50      55      74      
9       0       4       0       0       3       57      67      71      
7       0       0       0       8       3       55      89      93      
9       0       0       0       2       3       52      72      86      
3       0       5       0       0       1       53      
10      0       0       6       0       3       56      61      110     
1       3       0       0       0       1       58      
1       0       0       3       0       2       55      101     
6       0       4       0       0       3       65      79      91      
3       0       7       0       0       2       76      108     
8       7       0       0       0       2       79      81      
10      0       8       0       0       2       60      82      
7       0       0       0       8       2       69      99      
3       0       0       9       0       3       61      81      105     
4       0       0       0       6       3       76      84      87      
2       0       8       0       0       2       84      111     
4       0       0       0       2       3       77      92      96      
10      0       0       0       1       2       73      83      
7       0       0       0       1       3       81      102     115     
1       9       0       0       0       3       72      84      88      
4       0       4       0       0       1       87      
9       8       0       0       0       3       78      83      100     
4       0       0       0       1       3       80      101     112     
1       0       0       10      0       1       73      
3       0       0       7       0       3       77      79      82      
5       0       0       3       0       2       82      89      
10      0       7       0       0       3       78      96      97      
9       0       0       0       8       3       78      91      100     
3       0       0       10      0       2       80      95      
4       0       9       0       0       1       120     
10      0       5       0       0       2       85      99      
7       0       0       0       3       1       90      
8       8       0       0       0       2       87      92      
4       0       4       0       0       3       86      100     110     
3       0       8       0       0       2       85      112     
1       7       0       0       0       1       109     
7       0       0       0       2       3       93      101     105     
8       0       0       1       0       2       91      104     
9       9       0       0       0       1       98      
8       4       0       0       0       1       121     
10      0       1       0       0       1       117     
4       0       10      0       0       1       107     
3       0       0       0       5       2       94      96      
3       0       10      0       0       3       95      110     114     
9       8       0       0       0       1       98      
2       0       0       0       1       1       114     
8       0       0       0       10      1       97      
2       0       7       0       0       1       104     
6       0       0       0       8       2       105     118     
7       0       5       0       0       3       99      108     116     
9       0       3       0       0       2       98      103     
3       0       6       0       0       2       108     109     
2       0       0       5       0       1       102     
6       0       0       0       10      1       103     
8       10      0       0       0       1       111     
6       0       5       0       0       1       120     
3       0       5       0       0       1       114     
9       0       8       0       0       2       106     107     
10      0       0       1       0       2       106     109     
7       8       0       0       0       1       116     
5       4       0       0       0       2       112     113     
2       0       0       1       0       1       113     
4       0       0       0       2       1       119     
2       0       3       0       0       2       116     117     
9       0       0       8       0       1       115     
6       0       0       0       5       1       118     
4       1       0       0       0       1       117     
2       0       3       0       0       1       120     
5       4       0       0       0       1       121     
3       0       0       8       0       1       119     
4       0       0       0       9       1       118     
8       0       6       0       0       1       119     
1       0       0       9       0       1       122     
10      0       0       10      0       1       122     
7       0       0       0       1       1       122     
0       0       0       0       0       0       